NAME: U16
TYPE: TSP
COMMENT: made by 20231416
DIMENSION: 16
EDGE_WEIGHT_TYPE: EUC_2D
NODE_COORD_SECTION
1  1     1
2  3     1
3  5     1
4  7     9
5  9     1
6  3     9
7  9     5
8  1     7
9  9     9
10  7     1
11  5     9
12  9     3
13  1     9
14  7     9
15  1     5
16  1     3
EOF



